fitness = 1.0
1 3 2 8 1 3 2 8 1 3 2 8 1 3 2 8 1 3 2 8 1 3 2 8 1 3 2 8 1 3 2 8 1 3 2 8 1 4 5 7 1 4 5 7 1 4 5 7 1 4 5 7 1 4 5 7 1 4 5 7 1 4 5 7 1 4 5 7 1 4 5 7 1 4 5 7 1 4 5 7 1 4 5 7 1 4 5 7 1 4 5 7 1 4 5 7 1 4 5 7 1 4 5 7 1 4 5 7 1 4 5 7 1 4 5 7 1 4 5 7 1 4 5 7 1 4 5 7 1 4 5 7 1 4 5 7 1 4 5 7 1 4 5 7 1 4 5 7 1 4 5 7 1 4 5 7 1 4 5 7 1 4 5 7 1 4 5 7 1 4 5 7 1 4 5 7 1 4 5 7 1 4 5 